% Número de regiões
n = 12;
% Número de relações
m = 32;

regiao1 = [1,1,1,1,1,1,2,2,2,2,3,3,3,4,4,4,5,5,5,6,6,6,7,7,7,8,8,9,9,10,10,11];
regiao2 = [2,3,4,5,6,12,3,5,6,7,4,7,8,5,8,9,6,9,10,7,10,11,8,11,12,9,12,10,11,11,12,12];

% Cores que a região não deve assumir
%             
restricoes = [{}, {Azul}, {}, {Vermelho}, {}, {Azul}, {}, {Vermelho}, {}, {Azul}, {}, {Verde}];

